0,4,3
0,5,4
0,6,1
1,2,5
1,3,4
1,4,6
1,5,3
1,6,2
2,1,5
2,3,1
2,4,1
2,5,2
2,6,4
3,1,4
3,2,1
3,4,2
3,5,2
3,6,1
4,5,1
4,2,1
4,3,2
4,1,6
4,6,4
5,1,3
5,2,2
5,3,2
5,4,1
5,6,2
6,1,2
6,2,4
6,3,1
6,4,4
6,5,2